p cnf 128 322
a 18 16 14 12 10 8 6 4 2 75 38 36 34 33 101 107 115 1 32 0
d 40 75 1 0
d 100 101 32 0
d 3 2 0
d 5 4 0
d 7 6 0
d 9 8 0
d 11 10 0
d 13 12 0
d 15 14 0
d 17 16 0
d 19 18 0
d 20 18 0
d 21 18 0
d 22 16 18 0
d 23 14 16 18 0
d 24 12 14 16 18 0
d 25 10 12 14 16 18 0
d 26 8 10 12 14 16 18 0
d 27 6 8 10 12 14 16 18 0
d 28 4 6 8 10 12 14 16 18 0
d 29 2 4 6 8 10 12 14 16 18 0
d 30 1 2 4 6 8 10 12 14 16 18 0
d 31 1 2 4 6 8 10 12 14 16 18 0
d 35 34 0
d 37 36 0
d 39 38 0
d 41 38 75 1 0
d 42 36 38 75 1 0
d 43 34 36 38 75 1 0
d 44 33 34 36 38 75 1 0
d 45 33 34 36 38 75 1 0
d 46 32 33 34 36 38 75 1 0
d 47 32 33 34 36 38 75 1 0
d 48 1 2 4 6 8 10 12 14 16 18 32 33 34 36 38 75 0
d 49 18 0
d 50 18 0
d 51 16 18 0
d 52 16 18 0
d 53 18 16 0
d 54 14 16 18 0
d 55 14 16 18 0
d 56 18 16 14 0
d 57 12 14 16 18 0
d 58 12 14 16 18 0
d 59 18 16 14 12 0
d 60 10 12 14 16 18 0
d 61 10 12 14 16 18 0
d 62 18 16 14 12 10 0
d 63 8 10 12 14 16 18 0
d 64 8 10 12 14 16 18 0
d 65 18 16 14 12 10 8 0
d 66 6 8 10 12 14 16 18 0
d 67 6 8 10 12 14 16 18 0
d 68 18 16 14 12 10 8 6 0
d 69 4 6 8 10 12 14 16 18 0
d 70 4 6 8 10 12 14 16 18 0
d 71 18 16 14 12 10 8 6 4 0
d 72 2 4 6 8 10 12 14 16 18 0
d 73 2 4 6 8 10 12 14 16 18 0
d 74 18 16 14 12 10 8 6 4 2 0
d 76 75 2 4 6 8 10 12 14 16 18 0
d 77 75 2 4 6 8 10 12 14 16 18 0
d 78 18 16 14 12 10 8 6 4 2 75 0
d 79 38 75 1 0
d 80 75 0
d 81 75 2 4 6 8 10 12 14 16 18 0
d 82 38 75 2 4 6 8 10 12 14 16 18 0
d 83 38 75 1 2 4 6 8 10 12 14 16 18 0
d 84 18 16 14 12 10 8 6 4 2 75 38 1 0
d 85 36 38 75 1 0
d 86 38 75 2 4 6 8 10 12 14 16 18 0
d 87 36 38 75 2 4 6 8 10 12 14 16 18 0
d 88 36 38 75 1 2 4 6 8 10 12 14 16 18 0
d 89 18 16 14 12 10 8 6 4 2 75 38 1 36 0
d 90 34 36 38 75 1 0
d 91 36 38 75 2 4 6 8 10 12 14 16 18 0
d 92 34 36 38 75 2 4 6 8 10 12 14 16 18 0
d 93 34 36 38 75 1 2 4 6 8 10 12 14 16 18 0
d 94 18 16 14 12 10 8 6 4 2 75 38 1 36 34 0
d 95 33 34 36 38 75 1 0
d 96 34 36 38 75 2 4 6 8 10 12 14 16 18 0
d 97 33 34 36 38 75 2 4 6 8 10 12 14 16 18 0
d 98 33 34 36 38 75 1 2 4 6 8 10 12 14 16 18 0
d 99 18 16 14 12 10 8 6 4 2 75 38 1 36 34 33 0
d 102 33 0
d 103 33 34 36 38 75 2 4 6 8 10 12 14 16 18 0
d 104 101 33 34 36 38 75 2 4 6 8 10 12 14 16 18 0
d 105 101 32 33 34 36 38 75 2 4 6 8 10 12 14 16 18 0
d 106 18 16 14 12 10 8 6 4 2 75 38 1 36 34 33 101 32 0
d 108 101 0
d 109 101 33 34 36 38 75 1 0
d 110 107 101 33 34 36 38 75 1 0
d 111 101 33 34 36 38 75 2 4 6 8 10 12 14 16 18 0
d 112 107 101 33 34 36 38 75 2 4 6 8 10 12 14 16 18 0
d 113 107 101 33 34 36 38 75 1 2 4 6 8 10 12 14 16 18 0
d 114 18 16 14 12 10 8 6 4 2 75 38 1 36 34 33 101 32 107 0
d 116 107 0
d 117 107 101 33 34 36 38 75 1 0
d 118 115 107 101 33 34 36 38 75 1 0
d 119 107 101 33 34 36 38 75 2 4 6 8 10 12 14 16 18 0
d 120 115 107 101 33 34 36 38 75 2 4 6 8 10 12 14 16 18 0
d 121 115 107 101 33 34 36 38 75 1 2 4 6 8 10 12 14 16 18 0
d 122 18 16 14 12 10 8 6 4 2 75 38 1 36 34 33 101 32 107 115 0
d 123 115 0
d 124 115 107 101 33 34 36 38 75 1 0
d 125 115 107 101 33 34 36 38 75 2 4 6 8 10 12 14 16 18 0
d 126 115 107 101 33 34 36 38 75 1 2 4 6 8 10 12 14 16 18 0
d 127 18 16 14 12 10 8 6 4 2 75 38 1 36 34 33 101 32 107 115 0
d 128 1 2 4 6 8 10 12 14 16 18 32 33 34 36 38 75 101 107 115 0
3 2 0
-3 -2 0
5 4 0
-5 -4 0
7 6 0
-7 -6 0
9 8 0
-9 -8 0
11 10 0
-11 -10 0
13 12 0
-13 -12 0
15 14 0
-15 -14 0
17 16 0
-17 -16 0
19 18 0
-19 -18 0
20 -18 0
20 -19 0
-20 18 19 0
-21 19 0
-21 20 0
21 -19 -20 0
-22 17 0
-22 21 0
22 -17 -21 0
-23 15 0
-23 22 0
23 -15 -22 0
-24 13 0
-24 23 0
24 -13 -23 0
-25 11 0
-25 24 0
25 -11 -24 0
-26 9 0
-26 25 0
26 -9 -25 0
-27 7 0
-27 26 0
27 -7 -26 0
-28 5 0
-28 27 0
28 -5 -27 0
-29 3 0
-29 28 0
29 -3 -28 0
30 -1 -29 0
30 1 29 0
-30 -1 29 0
-30 1 -29 0
31 30 0
-31 -30 0
35 34 0
-35 -34 0
37 36 0
-37 -36 0
39 38 0
-39 -38 0
-41 39 0
-41 40 0
41 -39 -40 0
-42 37 0
-42 41 0
42 -37 -41 0
-43 35 0
-43 42 0
43 -35 -42 0
44 -33 0
44 -43 0
-44 33 43 0
45 44 0
-45 -44 0
46 -32 -45 0
46 32 45 0
-46 -32 45 0
-46 32 -45 0
47 46 0
-47 -46 0
48 -31 0
48 -47 0
-48 31 47 0
-49 18 0
-49 20 0
49 -18 -20 0
50 -49 -49 0
50 49 49 0
-50 -49 49 0
-50 49 -49 0
-51 16 0
-51 21 0
51 -16 -21 0
52 -51 -51 0
52 51 51 0
-52 -51 51 0
-52 51 -51 0
-53 50 0
-53 52 0
53 -50 -52 0
-54 14 0
-54 22 0
54 -14 -22 0
55 -54 -54 0
55 54 54 0
-55 -54 54 0
-55 54 -54 0
-56 53 0
-56 55 0
56 -53 -55 0
-57 12 0
-57 23 0
57 -12 -23 0
58 -57 -57 0
58 57 57 0
-58 -57 57 0
-58 57 -57 0
-59 56 0
-59 58 0
59 -56 -58 0
-60 10 0
-60 24 0
60 -10 -24 0
61 -60 -60 0
61 60 60 0
-61 -60 60 0
-61 60 -60 0
-62 59 0
-62 61 0
62 -59 -61 0
-63 8 0
-63 25 0
63 -8 -25 0
64 -63 -63 0
64 63 63 0
-64 -63 63 0
-64 63 -63 0
-65 62 0
-65 64 0
65 -62 -64 0
-66 6 0
-66 26 0
66 -6 -26 0
67 -66 -66 0
67 66 66 0
-67 -66 66 0
-67 66 -66 0
-68 65 0
-68 67 0
68 -65 -67 0
-69 4 0
-69 27 0
69 -4 -27 0
70 -69 -69 0
70 69 69 0
-70 -69 69 0
-70 69 -69 0
-71 68 0
-71 70 0
71 -68 -70 0
-72 2 0
-72 28 0
72 -2 -28 0
73 -72 -72 0
73 72 72 0
-73 -72 72 0
-73 72 -72 0
-74 71 0
-74 73 0
74 -71 -73 0
-76 75 0
-76 29 0
76 -75 -29 0
77 -76 -76 0
77 76 76 0
-77 -76 76 0
-77 76 -76 0
-78 74 0
-78 77 0
78 -74 -77 0
-79 38 0
-79 40 0
79 -38 -40 0
80 75 0
-80 -75 0
-81 80 0
-81 29 0
81 -80 -29 0
-82 38 0
-82 81 0
82 -38 -81 0
83 -79 -82 0
83 79 82 0
-83 -79 82 0
-83 79 -82 0
-84 78 0
-84 83 0
84 -78 -83 0
-85 36 0
-85 41 0
85 -36 -41 0
-86 39 0
-86 81 0
86 -39 -81 0
-87 36 0
-87 86 0
87 -36 -86 0
88 -85 -87 0
88 85 87 0
-88 -85 87 0
-88 85 -87 0
-89 84 0
-89 88 0
89 -84 -88 0
-90 34 0
-90 42 0
90 -34 -42 0
-91 37 0
-91 86 0
91 -37 -86 0
-92 34 0
-92 91 0
92 -34 -91 0
93 -90 -92 0
93 90 92 0
-93 -90 92 0
-93 90 -92 0
-94 89 0
-94 93 0
94 -89 -93 0
-95 33 0
-95 43 0
95 -33 -43 0
-96 35 0
-96 91 0
96 -35 -91 0
-97 33 0
-97 96 0
97 -33 -96 0
98 -95 -97 0
98 95 97 0
-98 -95 97 0
-98 95 -97 0
-99 94 0
-99 98 0
99 -94 -98 0
102 33 0
-102 -33 0
-103 102 0
-103 96 0
103 -102 -96 0
-104 101 0
-104 103 0
104 -101 -103 0
105 -100 -104 0
105 100 104 0
-105 -100 104 0
-105 100 -104 0
-106 99 0
-106 105 0
106 -99 -105 0
108 101 0
-108 -101 0
-109 108 0
-109 45 0
109 -108 -45 0
-110 107 0
-110 109 0
110 -107 -109 0
-111 108 0
-111 103 0
111 -108 -103 0
-112 107 0
-112 111 0
112 -107 -111 0
113 -110 -112 0
113 110 112 0
-113 -110 112 0
-113 110 -112 0
-114 106 0
-114 113 0
114 -106 -113 0
116 107 0
-116 -107 0
-117 116 0
-117 109 0
117 -116 -109 0
-118 115 0
-118 117 0
118 -115 -117 0
-119 116 0
-119 111 0
119 -116 -111 0
-120 115 0
-120 119 0
120 -115 -119 0
121 -118 -120 0
121 118 120 0
-121 -118 120 0
-121 118 -120 0
-122 114 0
-122 121 0
122 -114 -121 0
123 115 0
-123 -115 0
-124 123 0
-124 117 0
124 -123 -117 0
-125 123 0
-125 119 0
125 -123 -119 0
126 -124 -125 0
126 124 125 0
-126 -124 125 0
-126 124 -125 0
-127 122 0
-127 126 0
127 -122 -126 0
128 -48 0
128 -127 0
-128 48 127 0
128 0
